!! n20w20.001    16.75 391


CUST NO.   XCOORD.   YCOORD.    DEMAND   READY TIME   DUE DATE   SERVICE TIME


    1      16.00      23.00       0.00       0.00     408.00       0.00
    2      22.00       4.00       0.00      62.00      68.00       0.00
    3      12.00       6.00       0.00     181.00     205.00       0.00
